   30      40
    1      13       4
    2       5      12
    2      13       8
    3       8      13
    4      29       6
    4      30       3
    5       8      12
    5      19       7
    6       5       6
    7      15      10
    7      23      10
    8      11      10
    8      24       5
    9      15       3
   12      10       7
   14       8       9
   15       2      12
   15       5       9
   16       2      13
   16      22      14
   17      28       2
   18      13      12
   18      15       2
   18      21      15
   18      28      10
   18      30       8
   19      16      15
   19      24      14
   19      26      10
   20      26      14
   20      30       4
   21      16       6
   23      24       4
   24      15       9
   24      29      14
   25      12      15
   26      13      11
   27      10      15
   29      10       3
   29      13       8

16
  
1
3
4
5
7
8
10
15
19
20
21
23
24
27
28
30

4

1 10 23 24
3 4 5 30
8 19 27 28
7 15 20 21
